
Gurobi 10.0.1 (linux64) logging started Sun Nov 26 15:51:34 2023

Set parameter LogFile to value "ArtificialInstance/ExperimentV2/S3T3K3/AdRo/gurobiSpRo33.txt"
Gurobi Optimizer version 10.0.1 build v10.0.1rc0 (linux64)

CPU model: AMD EPYC 7H12 64-Core Processor, instruction set [SSE2|AVX|AVX2]
Thread count: 128 physical cores, 128 logical processors, using up to 32 threads

Academic license 656792 - for non-commercial use only - registered to b.___@student.vu.nl
Optimize a model with 12923 rows, 12505 columns and 48357 nonzeros
Model fingerprint: 0x1fb9203e
Variable types: 1 continuous, 12504 integer (12504 binary)
Coefficient statistics:
  Matrix range     [1e+00, 4e+01]
  Objective range  [1e+00, 2e+01]
  Bounds range     [1e+00, 1e+00]
  RHS range        [1e+00, 1e+00]
Presolve removed 5547 rows and 5339 columns
Presolve time: 0.15s
Presolved: 7376 rows, 7166 columns, 27712 nonzeros
Variable types: 1 continuous, 7165 integer (7165 binary)

Root relaxation: objective 6.726323e+01, 2014 iterations, 0.08 seconds (0.05 work units)

    Nodes    |    Current Node    |     Objective Bounds      |     Work
 Expl Unexpl |  Obj  Depth IntInf | Incumbent    BestBd   Gap | It/Node Time

H    0     0                      67.2632263   50.06899  25.6%     -    0s
     0     0          -    0        67.26323   67.26323  0.00%     -    0s

Explored 1 nodes (3257 simplex iterations) in 0.31 seconds (0.21 work units)
Thread count was 32 (of 128 available processors)

Solution count 1: 67.2632 

Optimal solution found (tolerance 1.00e-04)
Best objective 6.726322629474e+01, best bound 6.726322629474e+01, gap 0.0000%
